NAME : instances/clustered-mixed-tsp/instance-17.tsp
COMMENT : No Comment
TYPE : TSP
DIMENSION: 43
EDGE_WEIGHT_TYPE : EUC_2D
NODE_COORD_SECTION
1 952 -2 
2 78 176 
3 762 480 
4 640 1038 
5 1024 16 
6 708 480 
7 780 318 
8 824 56 
9 960 336 
10 546 246 
11 1004 416 
12 600 102 
13 798 246 
14 816 192 
15 842 20 
16 942 84 
17 510 210 
18 370 606 
19 734 344 
20 744 354 
21 824 380 
22 888 444 
23 222 212 
24 168 266 
25 1168 88 
26 150 554 
27 770 164 
28 970 34 
29 762 408 
30 726 120 
31 762 192 
32 752 -34 
33 808 448 
34 870 192 
35 -12 74 
36 726 210 
37 754 70 
38 1022 74 
39 826 286 
40 816 372 
41 280 822 
42 114 500 
43 734 38 
EOF
